5
24
0 50 62 57 90 18 40 83 55 97 72 45 16 19 17 14 47 26 33 91 86 84 42 63
27
0 98 20 21 46 37 59 54 23 35 15 22 9 36 81 27 92 41 39 24 10 11 7 73 61 75 64
21
0 99 96 29 31 44 2 56 85 30 34 28 51 53 43 66 5 68 89 8 71
17
0 88 25 32 93 77 94 6 49 58 87 80 3 100 78 79 70
16
0 48 69 67 74 82 12 76 1 38 4 52 60 13 95 65
